(set-logic QF_LIA)
(declare-fun x0 () Int)
(declare-fun x1 () Int)
(declare-fun x2 () Int)
(declare-fun x3 () Int)
(declare-fun x4 () Int)
(declare-fun x5 () Int)
(declare-fun x6 () Int)
(declare-fun x7 () Int)
(declare-fun x8 () Int)
(declare-fun x9 () Int)
(declare-fun A0 () Bool)
(declare-fun A1 () Bool)
(declare-fun A2 () Bool)
(declare-fun A3 () Bool)
(declare-fun A4 () Bool)
(declare-fun A5 () Bool)
(declare-fun A6 () Bool)
(declare-fun A7 () Bool)
(declare-fun A8 () Bool)
(declare-fun A9 () Bool)
(assert (let ((.def_0 (* (- 1) x8))) (let ((.def_1 (* 1 x0))) (let ((.def_2 (+ .def_1 .def_0))) (let ((.def_3 (< .def_2 (- 1)))) (let ((.def_4 (* (- 1) x7))) (let ((.def_5 (* 1 x5))) (let ((.def_6 (+ .def_5 .def_4))) (let ((.def_7 (< .def_6 1))) (let ((.def_8 (not .def_7))) (let ((.def_9 (or .def_8 .def_3))) (let ((.def_10 (* 1 x2))) (let ((.def_11 (* 1 x9))) (let ((.def_12 (+ .def_11 .def_10))) (let ((.def_13 (< .def_12 1))) (let ((.def_14 (not .def_13))) (let ((.def_15 (and .def_14 A6))) (let ((.def_16 (not .def_15))) (let ((.def_17 (= .def_16 .def_9))) (let ((.def_18 (not .def_17))) (let ((.def_19 (* (- 1) x9))) (let ((.def_20 (* 1 x4))) (let ((.def_21 (+ .def_20 .def_19))) (let ((.def_22 (< .def_21 (- 1)))) (let ((.def_23 (not A6))) (let ((.def_24 (or .def_23 .def_22))) (let ((.def_25 (* (- 1) x3))) (let ((.def_26 (+ .def_25 .def_19))) (let ((.def_27 (< .def_26 1))) (let ((.def_28 (not .def_27))) (let ((.def_29 (* (- 1) x6))) (let ((.def_30 (* (- 1) x1))) (let ((.def_31 (+ .def_30 .def_29))) (let ((.def_32 (< .def_31 (- 1)))) (let ((.def_33 (not .def_32))) (let ((.def_34 (= .def_33 .def_28))) (let ((.def_35 (not .def_34))) (let ((.def_36 (or .def_35 .def_24))) (let ((.def_37 (= .def_36 .def_18))) (let ((.def_38 (* (- 1) x0))) (let ((.def_39 (< .def_38 (- 1)))) (let ((.def_40 (not .def_39))) (let ((.def_41 (< .def_0 (- 1)))) (let ((.def_42 (not .def_41))) (let ((.def_43 (or .def_42 .def_40))) (let ((.def_44 (+ .def_20 .def_25))) (let ((.def_45 (< .def_44 (- 1)))) (let ((.def_46 (and A6 .def_45))) (let ((.def_47 (not .def_46))) (let ((.def_48 (or .def_47 .def_43))) (let ((.def_49 (not .def_48))) (let ((.def_50 (* 1 x7))) (let ((.def_51 (< .def_50 (- 1)))) (let ((.def_52 (or A4 .def_51))) (let ((.def_53 (< .def_5 (- 1)))) (let ((.def_54 (not .def_53))) (let ((.def_55 (or .def_54 A2))) (let ((.def_56 (not .def_55))) (let ((.def_57 (or .def_56 .def_52))) (let ((.def_58 (not .def_57))) (let ((.def_59 (or .def_58 .def_49))) (let ((.def_60 (not .def_59))) (let ((.def_61 (and .def_60 .def_37))) (let ((.def_62 (not .def_61))) (let ((.def_63 (and A6 A0))) (let ((.def_64 (not .def_63))) (let ((.def_65 (* 1 x3))) (let ((.def_66 (* 1 x1))) (let ((.def_67 (+ .def_66 .def_65))) (let ((.def_68 (< .def_67 1))) (let ((.def_69 (not .def_68))) (let ((.def_70 (or .def_69 A8))) (let ((.def_71 (and .def_70 .def_64))) (let ((.def_72 (not .def_71))) (let ((.def_73 (and A7 A8))) (let ((.def_74 (< .def_0 1))) (let ((.def_75 (< .def_1 1))) (let ((.def_76 (or .def_75 .def_74))) (let ((.def_77 (and .def_76 .def_73))) (let ((.def_78 (and .def_77 .def_72))) (let ((.def_79 (* (- 1) x5))) (let ((.def_80 (+ .def_11 .def_79))) (let ((.def_81 (< .def_80 1))) (let ((.def_82 (= .def_81 A5))) (let ((.def_83 (not .def_82))) (let ((.def_84 (+ .def_50 .def_0))) (let ((.def_85 (< .def_84 (- 1)))) (let ((.def_86 (+ .def_19 .def_25))) (let ((.def_87 (< .def_86 1))) (let ((.def_88 (and .def_87 .def_85))) (let ((.def_89 (not .def_88))) (let ((.def_90 (= .def_89 .def_83))) (let ((.def_91 (not .def_90))) (let ((.def_92 (< .def_5 1))) (let ((.def_93 (or .def_69 .def_92))) (let ((.def_94 (not .def_93))) (let ((.def_95 (+ .def_1 .def_10))) (let ((.def_96 (< .def_95 1))) (let ((.def_97 (or .def_53 .def_96))) (let ((.def_98 (or .def_97 .def_94))) (let ((.def_99 (not .def_98))) (let ((.def_100 (and .def_99 .def_91))) (let ((.def_101 (not .def_100))) (let ((.def_102 (or .def_101 .def_78))) (let ((.def_103 (or .def_102 .def_62))) (let ((.def_104 (* (- 1) x2))) (let ((.def_105 (< .def_104 (- 1)))) (let ((.def_106 (not A5))) (let ((.def_107 (and .def_106 .def_105))) (let ((.def_108 (not .def_107))) (let ((.def_109 (not .def_74))) (let ((.def_110 (* 1 x6))) (let ((.def_111 (+ .def_38 .def_110))) (let ((.def_112 (< .def_111 1))) (let ((.def_113 (not .def_112))) (let ((.def_114 (or .def_113 .def_109))) (let ((.def_115 (or .def_114 .def_108))) (let ((.def_116 (not .def_115))) (let ((.def_117 (not A2))) (let ((.def_118 (= .def_117 .def_74))) (let ((.def_119 (not .def_118))) (let ((.def_120 (or A2 A5))) (let ((.def_121 (not .def_120))) (let ((.def_122 (or .def_121 .def_119))) (let ((.def_123 (not .def_122))) (let ((.def_124 (and .def_123 .def_116))) (let ((.def_125 (+ .def_38 .def_0))) (let ((.def_126 (< .def_125 1))) (let ((.def_127 (or .def_126 .def_106))) (let ((.def_128 (not .def_127))) (let ((.def_129 (< .def_11 (- 1)))) (let ((.def_130 (not .def_129))) (let ((.def_131 (or A1 .def_130))) (let ((.def_132 (or .def_131 .def_128))) (let ((.def_133 (and A0 .def_117))) (let ((.def_134 (or A2 .def_106))) (let ((.def_135 (not .def_134))) (let ((.def_136 (= .def_135 .def_133))) (let ((.def_137 (not .def_136))) (let ((.def_138 (or .def_137 .def_132))) (let ((.def_139 (and .def_138 .def_124))) (let ((.def_140 (not .def_139))) (let ((.def_141 (+ .def_1 .def_110))) (let ((.def_142 (< .def_141 1))) (let ((.def_143 (not .def_142))) (let ((.def_144 (* 1 x8))) (let ((.def_145 (+ .def_50 .def_144))) (let ((.def_146 (< .def_145 1))) (let ((.def_147 (and .def_146 .def_143))) (let ((.def_148 (not .def_147))) (let ((.def_149 (< .def_38 1))) (let ((.def_150 (not .def_149))) (let ((.def_151 (or .def_150 A2))) (let ((.def_152 (and .def_151 .def_148))) (let ((.def_153 (not .def_152))) (let ((.def_154 (not .def_92))) (let ((.def_155 (and .def_154 .def_117))) (let ((.def_156 (not .def_155))) (let ((.def_157 (+ .def_144 .def_30))) (let ((.def_158 (< .def_157 (- 1)))) (let ((.def_159 (or A8 .def_158))) (let ((.def_160 (not .def_159))) (let ((.def_161 (or .def_160 .def_156))) (let ((.def_162 (not .def_161))) (let ((.def_163 (= .def_162 .def_153))) (let ((.def_164 (not A7))) (let ((.def_165 (or .def_164 .def_23))) (let ((.def_166 (not .def_165))) (let ((.def_167 (+ .def_4 .def_0))) (let ((.def_168 (< .def_167 (- 1)))) (let ((.def_169 (not .def_168))) (let ((.def_170 (and .def_169 A3))) (let ((.def_171 (not .def_170))) (let ((.def_172 (and .def_171 .def_166))) (let ((.def_173 (+ .def_50 .def_29))) (let ((.def_174 (< .def_173 (- 1)))) (let ((.def_175 (or A3 .def_174))) (let ((.def_176 (not .def_175))) (let ((.def_177 (< .def_4 (- 1)))) (let ((.def_178 (or .def_177 A6))) (let ((.def_179 (and .def_178 .def_176))) (let ((.def_180 (and .def_179 .def_172))) (let ((.def_181 (not .def_180))) (let ((.def_182 (or .def_181 .def_163))) (let ((.def_183 (or .def_182 .def_140))) (let ((.def_184 (and .def_183 .def_103))) (let ((.def_185 (not .def_184))) (let ((.def_186 (< .def_30 1))) (let ((.def_187 (or .def_186 .def_23))) (let ((.def_188 (not A9))) (let ((.def_189 (= .def_188 A0))) (let ((.def_190 (not .def_189))) (let ((.def_191 (or .def_190 .def_187))) (let ((.def_192 (not .def_191))) (let ((.def_193 (or .def_117 .def_41))) (let ((.def_194 (not .def_193))) (let ((.def_195 (or .def_186 A2))) (let ((.def_196 (or .def_195 .def_194))) (let ((.def_197 (not .def_196))) (let ((.def_198 (= .def_197 .def_192))) (let ((.def_199 (+ .def_29 .def_4))) (let ((.def_200 (< .def_199 (- 1)))) (let ((.def_201 (< .def_29 (- 1)))) (let ((.def_202 (and .def_201 .def_200))) (let ((.def_203 (not .def_202))) (let ((.def_204 (not A4))) (let ((.def_205 (< .def_66 1))) (let ((.def_206 (not .def_205))) (let ((.def_207 (and .def_206 .def_204))) (let ((.def_208 (not .def_207))) (let ((.def_209 (and .def_208 .def_203))) (let ((.def_210 (not .def_209))) (let ((.def_211 (< .def_65 1))) (let ((.def_212 (not .def_211))) (let ((.def_213 (and .def_23 .def_212))) (let ((.def_214 (not A0))) (let ((.def_215 (and .def_214 A4))) (let ((.def_216 (and .def_215 .def_213))) (let ((.def_217 (not .def_216))) (let ((.def_218 (or .def_217 .def_210))) (let ((.def_219 (not .def_218))) (let ((.def_220 (or .def_219 .def_198))) (let ((.def_221 (not A8))) (let ((.def_222 (or A2 .def_221))) (let ((.def_223 (not .def_222))) (let ((.def_224 (* (- 1) x4))) (let ((.def_225 (< .def_224 1))) (let ((.def_226 (not .def_225))) (let ((.def_227 (< .def_20 1))) (let ((.def_228 (and .def_227 .def_226))) (let ((.def_229 (not .def_228))) (let ((.def_230 (and .def_229 .def_223))) (let ((.def_231 (not .def_230))) (let ((.def_232 (< .def_1 (- 1)))) (let ((.def_233 (or .def_109 .def_232))) (let ((.def_234 (+ .def_4 .def_1))) (let ((.def_235 (< .def_234 (- 1)))) (let ((.def_236 (and .def_235 A9))) (let ((.def_237 (and .def_236 .def_233))) (let ((.def_238 (not .def_237))) (let ((.def_239 (or .def_238 .def_231))) (let ((.def_240 (< .def_79 (- 1)))) (let ((.def_241 (= .def_221 .def_240))) (let ((.def_242 (not .def_241))) (let ((.def_243 (or .def_41 .def_211))) (let ((.def_244 (not .def_243))) (let ((.def_245 (and .def_244 .def_242))) (let ((.def_246 (not .def_245))) (let ((.def_247 (+ .def_10 .def_79))) (let ((.def_248 (< .def_247 (- 1)))) (let ((.def_249 (and .def_248 A0))) (let ((.def_250 (+ .def_66 .def_79))) (let ((.def_251 (< .def_250 (- 1)))) (let ((.def_252 (not .def_251))) (let ((.def_253 (and .def_252 A7))) (let ((.def_254 (or .def_253 .def_249))) (let ((.def_255 (= .def_254 .def_246))) (let ((.def_256 (not .def_255))) (let ((.def_257 (or .def_256 .def_239))) (let ((.def_258 (not .def_257))) (let ((.def_259 (and .def_258 .def_220))) (let ((.def_260 (or .def_117 .def_186))) (let ((.def_261 (+ .def_110 .def_5))) (let ((.def_262 (< .def_261 (- 1)))) (let ((.def_263 (or .def_232 .def_262))) (let ((.def_264 (and .def_263 .def_260))) (let ((.def_265 (< .def_31 1))) (let ((.def_266 (not .def_265))) (let ((.def_267 (+ .def_224 .def_10))) (let ((.def_268 (< .def_267 (- 1)))) (let ((.def_269 (and .def_268 .def_266))) (let ((.def_270 (not .def_269))) (let ((.def_271 (and .def_164 A4))) (let ((.def_272 (not .def_271))) (let ((.def_273 (and .def_272 .def_270))) (let ((.def_274 (not .def_273))) (let ((.def_275 (or .def_274 .def_264))) (let ((.def_276 (not .def_275))) (let ((.def_277 (< .def_104 1))) (let ((.def_278 (not .def_277))) (let ((.def_279 (and .def_278 A8))) (let ((.def_280 (not .def_279))) (let ((.def_281 (+ .def_38 .def_4))) (let ((.def_282 (< .def_281 (- 1)))) (let ((.def_283 (< .def_84 1))) (let ((.def_284 (not .def_283))) (let ((.def_285 (or .def_284 .def_282))) (let ((.def_286 (or .def_285 .def_280))) (let ((.def_287 (+ .def_5 .def_25))) (let ((.def_288 (< .def_287 1))) (let ((.def_289 (or .def_288 .def_221))) (let ((.def_290 (not .def_289))) (let ((.def_291 (< .def_19 1))) (let ((.def_292 (or .def_291 A7))) (let ((.def_293 (or .def_292 .def_290))) (let ((.def_294 (not .def_293))) (let ((.def_295 (and .def_294 .def_286))) (let ((.def_296 (not .def_295))) (let ((.def_297 (= .def_296 .def_276))) (let ((.def_298 (not .def_297))) (let ((.def_299 (+ .def_66 .def_20))) (let ((.def_300 (< .def_299 1))) (let ((.def_301 (not .def_300))) (let ((.def_302 (+ .def_0 .def_110))) (let ((.def_303 (< .def_302 1))) (let ((.def_304 (not .def_303))) (let ((.def_305 (and .def_304 .def_301))) (let ((.def_306 (not A3))) (let ((.def_307 (and .def_306 A6))) (let ((.def_308 (not .def_307))) (let ((.def_309 (or .def_308 .def_305))) (let ((.def_310 (not .def_309))) (let ((.def_311 (+ .def_4 .def_5))) (let ((.def_312 (< .def_311 1))) (let ((.def_313 (= .def_312 A9))) (let ((.def_314 (+ .def_79 .def_25))) (let ((.def_315 (< .def_314 1))) (let ((.def_316 (not .def_315))) (let ((.def_317 (and .def_188 .def_316))) (let ((.def_318 (and .def_317 .def_313))) (let ((.def_319 (not .def_318))) (let ((.def_320 (or .def_319 .def_310))) (let ((.def_321 (and .def_227 A2))) (let ((.def_322 (and .def_221 A1))) (let ((.def_323 (not .def_322))) (let ((.def_324 (or .def_323 .def_321))) (let ((.def_325 (= A8 A8))) (let ((.def_326 (not .def_325))) (let ((.def_327 (= .def_212 .def_214))) (let ((.def_328 (not .def_327))) (let ((.def_329 (= .def_328 .def_326))) (let ((.def_330 (and .def_329 .def_324))) (let ((.def_331 (or .def_330 .def_320))) (let ((.def_332 (or .def_331 .def_298))) (let ((.def_333 (and .def_332 .def_259))) (let ((.def_334 (not .def_333))) (let ((.def_335 (and .def_334 .def_185))) (let ((.def_336 (<= x9 1))) (let ((.def_337 (<= 0 x9))) (let ((.def_338 (<= x8 1))) (let ((.def_339 (<= 0 x8))) (let ((.def_340 (<= x7 1))) (let ((.def_341 (<= 0 x7))) (let ((.def_342 (<= x6 1))) (let ((.def_343 (<= 0 x6))) (let ((.def_344 (<= x5 1))) (let ((.def_345 (<= 0 x5))) (let ((.def_346 (<= x4 1))) (let ((.def_347 (<= 0 x4))) (let ((.def_348 (<= x3 1))) (let ((.def_349 (<= 0 x3))) (let ((.def_350 (<= x2 1))) (let ((.def_351 (<= 0 x2))) (let ((.def_352 (<= x1 1))) (let ((.def_353 (<= 0 x1))) (let ((.def_354 (<= x0 1))) (let ((.def_355 (<= 0 x0))) (let ((.def_356 (and .def_355 .def_354 .def_353 .def_352 .def_351 .def_350 .def_349 .def_348 .def_347 .def_346 .def_345 .def_344 .def_343 .def_342 .def_341 .def_340 .def_339 .def_338 .def_337 .def_336 .def_335))) .def_356))))))))))))))))))))))))))))))))))))))))))))))))))))))))))))))))))))))))))))))))))))))))))))))))))))))))))))))))))))))))))))))))))))))))))))))))))))))))))))))))))))))))))))))))))))))))))))))))))))))))))))))))))))))))))))))))))))))))))))))))))))))))))))))))))))))))))))))))))))))))))))))))))))))))))))))))))))))))))))))))))))))))))))))))))))))))))))))))))))))
(check-sat)
